Set parameter TokenServer to value "hpc-licenses.hpcc.usc.edu"
Set parameter TimeLimit to value 3600
Gurobi Optimizer version 9.5.1 build v9.5.1rc2 (linux64)
Thread count: 20 physical cores, 20 logical processors, using up to 20 threads
Optimize a model with 6007 rows, 4529 columns and 24534 nonzeros
Model fingerprint: 0x4b463684
Variable types: 4506 continuous, 23 integer (23 binary)
Coefficient statistics:
  Matrix range     [1e+00, 1e+00]
  Objective range  [3e-03, 1e+00]
  Bounds range     [1e+00, 1e+00]
  RHS range        [1e+00, 1e+02]
Presolve removed 1520 rows and 1515 columns
Presolve time: 0.05s
Presolved: 4487 rows, 3014 columns, 21975 nonzeros
Variable types: 2994 continuous, 20 integer (20 binary)
Found heuristic solution: objective 222.6883973

Root relaxation: objective 2.306093e+02, 2692 iterations, 0.08 seconds (0.13 work units)

    Nodes    |    Current Node    |     Objective Bounds      |     Work
 Expl Unexpl |  Obj  Depth IntInf | Incumbent    BestBd   Gap | It/Node Time

     0     0  230.60929    0    2  222.68840  230.60929  3.56%     -    0s
H    0     0                     230.1838141  230.50374  0.14%     -    0s
     0     0  230.50374    0    5  230.18381  230.50374  0.14%     -    0s
     0     0  230.46689    0    5  230.18381  230.46689  0.12%     -    0s
     0     0  230.46689    0    2  230.18381  230.46689  0.12%     -    0s
     0     0  230.45949    0    5  230.18381  230.45949  0.12%     -    1s
     0     0  230.45949    0    5  230.18381  230.45949  0.12%     -    1s

Cutting planes:
  Gomory: 2
  Implied bound: 110
  MIR: 74
  Flow cover: 174
  RLT: 2
  Relax-and-lift: 74

Explored 1 nodes (4609 simplex iterations) in 1.70 seconds (0.61 work units)
Thread count was 20 (of 20 available processors)

Solution count 2: 230.184 222.688 

Optimal solution found (tolerance 1.00e-04)
Best objective 2.301838141011e+02, best bound 2.301937674491e+02, gap 0.0043%



#########node  1
V1.8
#########node  2
0.13636363636363635,0.8636363636363636
#########node  3
1.0,0.0


Total Solving Time 2.0877065658569336
obj value 230.18381410107702
Policy Regret train (Sum) 6.574261261987341
Best Treatment Found train (%) 61.8
treatment classification acc train (%) 37.6
Policy Regret test (Sum) 108.72835269107836
Best Treatment Found test (%) 63.12
treatment classification acc test (%) 39.32
